(set-option :produce-models true); benchmark generated from python API
(set-info :status unknown)
(declare-fun l_0_0_7 () Real)
(declare-fun _a_0_ () Real)
(declare-fun l_0_0_9 () Real)
(declare-fun l_0_0_11 () Real)
(declare-fun l_0_0_8 () Real)
(declare-fun l_0_0_10 () Real)
(declare-fun l_0_0_4 () Real)
(declare-fun l_0_0_1 () Real)
(declare-fun _a_1_ () Real)
(declare-fun l_0_0_12 () Real)
(declare-fun _a_2_ () Real)
(declare-fun l_0_0_2 () Real)
(declare-fun _a_3_ () Real)
(declare-fun l_0_0_6 () Real)
(declare-fun l_0_0_5 () Real)
(declare-fun l_0_0_3 () Real)
(declare-fun l_0_1_7 () Real)
(declare-fun l_0_1_13 () Real)
(declare-fun l_0_1_1 () Real)
(declare-fun l_0_1_18 () Real)
(declare-fun l_0_1_17 () Real)
(declare-fun l_0_1_16 () Real)
(declare-fun l_0_1_12 () Real)
(declare-fun l_0_1_11 () Real)
(declare-fun l_0_1_10 () Real)
(declare-fun l_0_1_6 () Real)
(declare-fun l_0_1_5 () Real)
(declare-fun l_0_1_4 () Real)
(declare-fun l_0_1_9 () Real)
(declare-fun l_0_1_8 () Real)
(declare-fun l_0_1_15 () Real)
(declare-fun l_0_1_14 () Real)
(declare-fun l_0_1_3 () Real)
(declare-fun l_0_1_2 () Real)
(declare-fun l_0_2_7 () Real)
(declare-fun l_0_2_13 () Real)
(declare-fun l_0_2_1 () Real)
(declare-fun l_0_2_17 () Real)
(declare-fun l_0_2_15 () Real)
(declare-fun l_0_2_16 () Real)
(declare-fun l_0_2_14 () Real)
(declare-fun l_0_2_9 () Real)
(declare-fun l_0_2_11 () Real)
(declare-fun l_0_2_8 () Real)
(declare-fun l_0_2_10 () Real)
(declare-fun l_0_2_5 () Real)
(declare-fun l_0_2_3 () Real)
(declare-fun l_0_2_4 () Real)
(declare-fun l_0_2_2 () Real)
(declare-fun l_0_2_18 () Real)
(declare-fun l_0_2_12 () Real)
(declare-fun l_0_2_6 () Real)
(assert
 (= (- _a_0_ (* l_0_0_7 l_0_0_7)) 0.0))
(assert
 (let ((?x90 (- (- _a_1_ (* (* 4.0 l_0_0_1) l_0_0_4)) (* (* 2.0 l_0_0_10) l_0_0_8))))
 (= (- ?x90 (* (* 2.0 l_0_0_11) l_0_0_9)) 0.0)))
(assert
 (let ((?x122 (* l_0_0_12 l_0_0_12)))
 (let ((?x120 (* l_0_0_11 l_0_0_11)))
 (let ((?x121 (- (- (+ _a_2_ (* l_0_0_1 l_0_0_1)) (* l_0_0_10 l_0_0_10)) ?x120)))
 (= (- ?x121 ?x122) 0.0)))))
(assert
 (let ((?x140 (* l_0_0_9 l_0_0_9)))
 (let ((?x138 (* l_0_0_8 l_0_0_8)))
 (let ((?x116 (* l_0_0_1 l_0_0_1)))
 (let ((?x141 (- (- (+ (- _a_3_ (* (* 4.0 l_0_0_1) l_0_0_2)) ?x116) ?x138) ?x140)))
 (= ?x141 0.0))))))
(assert
 (let ((?x157 (* 2.0 l_0_0_1)))
 (let ((?x158 (* ?x157 l_0_0_2)))
 (let ((?x164 (- (- ?x158 (* (* 2.0 l_0_0_4) l_0_0_4)) (* (* 2.0 l_0_0_5) l_0_0_5))))
 (= (- ?x164 (* (* 2.0 l_0_0_6) l_0_0_6)) 0.0)))))
(assert
 (let ((?x157 (* 2.0 l_0_0_1)))
 (let ((?x189 (* ?x157 l_0_0_4)))
 (= ?x189 0.0))))
(assert
 (let ((?x182 (* l_0_0_6 l_0_0_6)))
 (let ((?x176 (* l_0_0_5 l_0_0_5)))
 (let ((?x170 (* l_0_0_4 l_0_0_4)))
 (let ((?x193 (* l_0_0_3 l_0_0_3)))
 (let ((?x191 (* l_0_0_2 l_0_0_2)))
 (let ((?x194 (+ ?x191 ?x193)))
 (= (+ (+ (+ ?x194 ?x170) ?x176) ?x182) 0.0))))))))
(assert
 (let ((?x205 (+ (* (* 2.0 l_0_0_2) l_0_0_4) (* (* 2.0 l_0_0_3) l_0_0_5))))
 (= ?x205 0.0)))
(assert
 (let ((?x182 (* l_0_0_6 l_0_0_6)))
 (= (+ (+ (* l_0_0_4 l_0_0_4) (* l_0_0_5 l_0_0_5)) ?x182) 0.0)))
(assert
 (let ((?x157 (* 2.0 l_0_0_1)))
 (let ((?x158 (* ?x157 l_0_0_2)))
 (let ((?x221 (- (- ?x158 (* (* 2.0 l_0_0_2) l_0_0_2)) (* (* 2.0 l_0_0_3) l_0_0_3))))
 (= ?x221 0.0)))))
(assert
 (let ((?x157 (* 2.0 l_0_0_1)))
 (let ((?x189 (* ?x157 l_0_0_4)))
 (let ((?x239 (- (- ?x189 (* (* 4.0 l_0_0_2) l_0_0_4)) (* (* 4.0 l_0_0_3) l_0_0_5))))
 (= ?x239 0.0)))))
(assert
 (let ((?x193 (* l_0_0_3 l_0_0_3)))
 (let ((?x191 (* l_0_0_2 l_0_0_2)))
 (let ((?x194 (+ ?x191 ?x193)))
 (= ?x194 0.0)))))
(assert
 (let ((?x205 (+ (* (* 2.0 l_0_0_2) l_0_0_4) (* (* 2.0 l_0_0_3) l_0_0_5))))
 (= ?x205 0.0)))
(assert
 (let ((?x258 (- (* (* (- 2.0) l_0_0_1) l_0_0_1) (* (* 2.0 l_0_0_7) l_0_0_8))))
 (= ?x258 0.0)))
(assert
 (= (* (* (- 2.0) l_0_0_10) l_0_0_7) 0.0))
(assert
 (>= l_0_0_1 0.0))
(assert
 (>= l_0_0_3 0.0))
(assert
 (>= l_0_0_6 0.0))
(assert
 (>= l_0_0_7 0.0))
(assert
 (>= l_0_0_9 0.0))
(assert
 (>= l_0_0_12 0.0))
(assert
 (let ((?x289 (+ (- (* (* (- _a_0_) l_0_1_1) l_0_1_1) (* l_0_1_13 l_0_1_13)) (* 1.0 (* l_0_1_7 l_0_1_7)))))
 (= (+ ?x289 3.0) 0.0)))
(assert
 (let ((?x324 (* l_0_1_18 l_0_1_18)))
 (let ((?x322 (* l_0_1_17 l_0_1_17)))
 (let ((?x320 (* l_0_1_16 l_0_1_16)))
 (let ((?x305 (* l_0_1_6 l_0_1_6)))
 (let ((?x306 (+ (+ (* l_0_1_4 l_0_1_4) (* l_0_1_5 l_0_1_5)) ?x305)))
 (let ((?x281 (- _a_0_)))
 (let ((?x313 (+ (- (* ?x281 ?x306) (* (* _a_2_ l_0_1_1) l_0_1_1)) (* 1.0 (* l_0_1_10 l_0_1_10)))))
 (let ((?x319 (+ (+ ?x313 (* 1.0 (* l_0_1_11 l_0_1_11))) (* 1.0 (* l_0_1_12 l_0_1_12)))))
 (= (- (- (- (- ?x319 ?x320) ?x322) ?x324) 1.0) 0.0))))))))))
(assert
 (let ((?x362 (* l_0_1_15 l_0_1_15)))
 (let ((?x360 (* l_0_1_14 l_0_1_14)))
 (let ((?x359 (- (* (- _a_0_) (+ (* l_0_1_2 l_0_1_2) (* l_0_1_3 l_0_1_3))) (* (* _a_3_ l_0_1_1) l_0_1_1))))
 (let ((?x369 (+ (+ (- (- ?x359 ?x360) ?x362) (* 1.0 (* l_0_1_8 l_0_1_8))) (* 1.0 (* l_0_1_9 l_0_1_9)))))
 (= (- ?x369 1.0) 0.0))))))
(assert
 (let ((?x399 (- (* (* (* (- 2.0) _a_0_) l_0_1_1) l_0_1_2) (* (* 2.0 l_0_1_13) l_0_1_14))))
 (= (+ (+ ?x399 (* (* 2.0 l_0_1_7) l_0_1_8)) 2.0) 0.0)))
(assert
 (let ((?x421 (+ (* (* (* (- 2.0) _a_0_) l_0_1_1) l_0_1_4) (* (* 2.0 l_0_1_10) l_0_1_7))))
 (= (- ?x421 (* (* 2.0 l_0_1_13) l_0_1_16)) 0.0)))
(assert
 (let ((?x446 (+ (* (* 2.0 l_0_1_2) l_0_1_4) (* (* 2.0 l_0_1_3) l_0_1_5))))
 (let ((?x281 (- _a_0_)))
 (let ((?x452 (+ (- (* ?x281 ?x446) (* (* _a_1_ l_0_1_1) l_0_1_1)) (* (* 2.0 l_0_1_10) l_0_1_8))))
 (let ((?x458 (- (+ ?x452 (* (* 2.0 l_0_1_11) l_0_1_9)) (* (* 2.0 l_0_1_14) l_0_1_16))))
 (= (- ?x458 (* (* 2.0 l_0_1_15) l_0_1_17)) 0.0))))))
(assert
 (let ((?x503 (- (* (* (* (- 2.0) _a_1_) l_0_1_1) l_0_1_2) (* (* (* 2.0 _a_3_) l_0_1_1) l_0_1_4))))
 (= ?x503 0.0)))
(assert
 (let ((?x520 (- (* (* (* (- 2.0) _a_1_) l_0_1_1) l_0_1_4) (* (* (* 2.0 _a_2_) l_0_1_1) l_0_1_2))))
 (= ?x520 0.0)))
(assert
 (let ((?x446 (+ (* (* 2.0 l_0_1_2) l_0_1_4) (* (* 2.0 l_0_1_3) l_0_1_5))))
 (let ((?x537 (- (* (- _a_1_) (+ (* l_0_1_2 l_0_1_2) (* l_0_1_3 l_0_1_3))) (* _a_3_ ?x446))))
 (= ?x537 0.0))))
(assert
 (let ((?x305 (* l_0_1_6 l_0_1_6)))
 (let ((?x306 (+ (+ (* l_0_1_4 l_0_1_4) (* l_0_1_5 l_0_1_5)) ?x305)))
 (let ((?x446 (+ (* (* 2.0 l_0_1_2) l_0_1_4) (* (* 2.0 l_0_1_3) l_0_1_5))))
 (let ((?x534 (- _a_1_)))
 (let ((?x567 (- (* ?x534 ?x446) (* _a_2_ (+ (* l_0_1_2 l_0_1_2) (* l_0_1_3 l_0_1_3))))))
 (= (- ?x567 (* _a_3_ ?x306)) 0.0)))))))
(assert
 (let ((?x446 (+ (* (* 2.0 l_0_1_2) l_0_1_4) (* (* 2.0 l_0_1_3) l_0_1_5))))
 (let ((?x305 (* l_0_1_6 l_0_1_6)))
 (let ((?x306 (+ (+ (* l_0_1_4 l_0_1_4) (* l_0_1_5 l_0_1_5)) ?x305)))
 (let ((?x534 (- _a_1_)))
 (= (- (* ?x534 ?x306) (* _a_2_ ?x446)) 0.0))))))
(assert
 (= (* (* (* (- 2.0) _a_2_) l_0_1_1) l_0_1_4) 0.0))
(assert
 (let ((?x305 (* l_0_1_6 l_0_1_6)))
 (let ((?x306 (+ (+ (* l_0_1_4 l_0_1_4) (* l_0_1_5 l_0_1_5)) ?x305)))
 (let ((?x642 (- _a_2_)))
 (= (* ?x642 ?x306) 0.0)))))
(assert
 (= (* (* (* (- 2.0) _a_3_) l_0_1_1) l_0_1_2) 0.0))
(assert
 (= (* (- _a_3_) (+ (* l_0_1_2 l_0_1_2) (* l_0_1_3 l_0_1_3))) 0.0))
(assert
 (>= l_0_1_1 0.0))
(assert
 (>= l_0_1_3 0.0))
(assert
 (>= l_0_1_6 0.0))
(assert
 (>= l_0_1_7 0.0))
(assert
 (>= l_0_1_9 0.0))
(assert
 (>= l_0_1_12 0.0))
(assert
 (>= l_0_1_13 0.0))
(assert
 (>= l_0_1_15 0.0))
(assert
 (>= l_0_1_18 0.0))
(assert
 (let ((?x693 (* l_0_2_13 l_0_2_13)))
 (let ((?x691 (* (/ 25897921.0 2500000000000000.0) _a_3_)))
 (let ((?x688 (* (/ 1.0 10000.0) _a_2_)))
 (let ((?x685 (* (/ 5089.0 5000000000.0) _a_1_)))
 (let ((?x689 (+ (+ (+ (* (* (- _a_0_) l_0_2_1) l_0_2_1) _a_0_) ?x685) ?x688)))
 (= (- (- (+ ?x689 ?x691) ?x693) (* (* 1.0 l_0_2_7) l_0_2_7)) 0.0)))))))
(assert
 (let ((?x726 (* (/ 207280909786429.0 10000000000000000.0) _a_3_)))
 (let ((?x723 (* (/ 1036521.0 50000000.0) _a_2_)))
 (let ((?x720 (* (/ 12497251686731.0 12500000000000.0) _a_1_)))
 (let ((?x714 (+ (* (* 2.0 l_0_2_2) l_0_2_4) (* (* 2.0 l_0_2_3) l_0_2_5))))
 (let ((?x281 (- _a_0_)))
 (let ((?x724 (- (+ (- (* ?x281 ?x714) (* (* _a_1_ l_0_2_1) l_0_2_1)) ?x720) ?x723)))
 (let ((?x733 (- (- (+ ?x724 ?x726) (* (* 2.0 l_0_2_10) l_0_2_8)) (* (* 2.0 l_0_2_11) l_0_2_9))))
 (let ((?x739 (- (- ?x733 (* (* 2.0 l_0_2_14) l_0_2_16)) (* (* 2.0 l_0_2_15) l_0_2_17))))
 (= ?x739 0.0))))))))))
(assert
 (let ((?x815 (* l_0_2_18 l_0_2_18)))
 (let ((?x813 (* l_0_2_17 l_0_2_17)))
 (let ((?x811 (* l_0_2_16 l_0_2_16)))
 (let ((?x800 (* (/ 1112484251041.0 10000000000000000.0) _a_3_)))
 (let ((?x793 (* (/ 527621.0 50000000.0) _a_1_)))
 (let ((?x789 (* l_0_2_6 l_0_2_6)))
 (let ((?x790 (+ (+ (* l_0_2_4 l_0_2_4) (* l_0_2_5 l_0_2_5)) ?x789)))
 (let ((?x281 (- _a_0_)))
 (let ((?x798 (+ (- (+ (* ?x281 ?x790) ?x793) (* (* _a_2_ l_0_2_1) l_0_2_1)) _a_2_)))
 (let ((?x807 (- (- (+ ?x798 ?x800) (* (* 1.0 l_0_2_10) l_0_2_10)) (* (* 1.0 l_0_2_11) l_0_2_11))))
 (let ((?x816 (- (- (- (- ?x807 (* (* 1.0 l_0_2_12) l_0_2_12)) ?x811) ?x813) ?x815)))
 (= ?x816 0.0)))))))))))))
(assert
 (let ((?x859 (* (/ 19404709641.0 50000000000000.0) _a_3_)))
 (let ((?x860 (+ (- (* (/ 18721.0 1000000.0) _a_1_) (* (* (* 2.0 _a_2_) l_0_2_1) l_0_2_4)) ?x859)))
 (= ?x860 0.0))))
(assert
 (let ((?x878 (* (/ 18721.0 500000.0) _a_2_)))
 (let ((?x876 (- (- (* (* (* (- 2.0) _a_1_) l_0_2_1) l_0_2_4) (* (/ 51108943441.0 50000000000000.0) _a_1_)) (* (* (* 2.0 _a_2_) l_0_2_1) l_0_2_2))))
 (= (+ (- ?x876 ?x878) (* (/ 93562026018491.0 2500000000000000.0) _a_3_)) 0.0))))
(assert
 (let ((?x917 (* (/ 5274855369.0 2500000000000000.0) _a_3_)))
 (let ((?x914 (* (/ 1.0 50.0) _a_2_)))
 (let ((?x915 (+ (+ (* (* (* (- 2.0) _a_0_) l_0_2_1) l_0_2_4) (* (/ 2054321.0 10000000000.0) _a_1_)) ?x914)))
 (let ((?x923 (- (- (+ ?x915 ?x917) (* (* 2.0 l_0_2_10) l_0_2_7)) (* (* 2.0 l_0_2_13) l_0_2_16))))
 (= ?x923 0.0))))))
(assert
 (let ((?x952 (* (/ 31698152009291.0 25000000000000000.0) _a_3_)))
 (let ((?x946 (* (/ 221771169.0 250000000000.0) _a_2_)))
 (let ((?x947 (+ (- (* (* (* (- 2.0) _a_1_) l_0_2_1) l_0_2_2) (* (/ 37409384775463.0 2000000000000000.0) _a_1_)) ?x946)))
 (= (- (- ?x947 (* (* (* 2.0 _a_3_) l_0_2_1) l_0_2_4)) ?x952) 0.0)))))
(assert
 (let ((?x987 (* (/ 38758637278219.0 1250000000000000000.0) _a_3_)))
 (let ((?x714 (+ (* (* 2.0 l_0_2_2) l_0_2_4) (* (* 2.0 l_0_2_3) l_0_2_5))))
 (let ((?x982 (* (/ 350475841.0 500000000000.0) _a_1_)))
 (let ((?x789 (* l_0_2_6 l_0_2_6)))
 (let ((?x790 (+ (+ (* l_0_2_4 l_0_2_4) (* l_0_2_5 l_0_2_5)) ?x789)))
 (let ((?x534 (- _a_1_)))
 (= (- (- (- (* ?x534 ?x790) ?x982) (* _a_2_ ?x714)) ?x987) 0.0))))))))
(assert
 (let ((?x1043 (* (/ 700086027943143.0 1000000000000000000.0) _a_3_)))
 (let ((?x789 (* l_0_2_6 l_0_2_6)))
 (let ((?x790 (+ (+ (* l_0_2_4 l_0_2_4) (* l_0_2_5 l_0_2_5)) ?x789)))
 (let ((?x1038 (* (/ 350475841.0 1000000000000.0) _a_2_)))
 (let ((?x1030 (* (/ 14823540664547.0 500000000000000000.0) _a_1_)))
 (let ((?x714 (+ (* (* 2.0 l_0_2_2) l_0_2_4) (* (* 2.0 l_0_2_3) l_0_2_5))))
 (let ((?x534 (- _a_1_)))
 (let ((?x1036 (- (+ (* ?x534 ?x714) ?x1030) (* _a_2_ (+ (* l_0_2_2 l_0_2_2) (* l_0_2_3 l_0_2_3))))))
 (= (- (- (+ ?x1036 ?x1038) (* _a_3_ ?x790)) ?x1043) 0.0))))))))))
(assert
 (let ((?x714 (+ (* (* 2.0 l_0_2_2) l_0_2_4) (* (* 2.0 l_0_2_3) l_0_2_5))))
 (let ((?x1091 (* (/ 4736413.0 500000000000.0) _a_2_)))
 (let ((?x1088 (* (/ 104315317271.0 250000000000000000.0) _a_1_)))
 (let ((?x1089 (- (* (- _a_1_) (+ (* l_0_2_2 l_0_2_2) (* l_0_2_3 l_0_2_3))) ?x1088)))
 (= (+ (- (- ?x1089 ?x1091) (* _a_3_ ?x714)) (* (/ 47339458409133.0 2500000000000000000.0) _a_3_)) 0.0))))))
(assert
 (let ((?x1143 (* (/ 40707679574001.0 200000000000000000.0) _a_3_)))
 (let ((?x1140 (* (/ 5089.0 25000000.0) _a_2_)))
 (let ((?x1141 (- (+ (* (* (* (- 2.0) _a_0_) l_0_2_1) l_0_2_2) (* (/ 124973785829.0 12500000000000.0) _a_1_)) ?x1140)))
 (let ((?x1149 (- (- (+ ?x1141 ?x1143) (* (* 2.0 l_0_2_13) l_0_2_14)) (* (* 2.0 l_0_2_7) l_0_2_8))))
 (= ?x1149 0.0))))))
(assert
 (let ((?x1190 (* l_0_2_15 l_0_2_15)))
 (let ((?x1188 (* l_0_2_14 l_0_2_14)))
 (let ((?x1186 (* (/ 12497347111777.0 12500000000000.0) _a_3_)))
 (let ((?x1180 (* (/ 27162921.0 250000000000.0) _a_2_)))
 (let ((?x1177 (* (/ 50884213212401.0 5000000000000000.0) _a_1_)))
 (let ((?x1178 (- (* (- _a_0_) (+ (* l_0_2_2 l_0_2_2) (* l_0_2_3 l_0_2_3))) ?x1177)))
 (let ((?x1189 (- (+ (- (+ ?x1178 ?x1180) (* (* _a_3_ l_0_2_1) l_0_2_1)) ?x1186) ?x1188)))
 (let ((?x1197 (- (- (- ?x1189 ?x1190) (* (* 1.0 l_0_2_8) l_0_2_8)) (* (* 1.0 l_0_2_9) l_0_2_9))))
 (= ?x1197 0.0))))))))))
(assert
 (let ((?x1243 (* (/ 51495149512751.0 5000000000000000000.0) _a_3_)))
 (let ((?x1241 (- (- (* (/ 63230023432961.0 250000000000000000.0) _a_1_) (* (/ 1287517.0 250000000000.0) _a_2_)) (* (* (* 2.0 _a_3_) l_0_2_1) l_0_2_2))))
 (= (+ ?x1241 ?x1243) 0.0))))
(assert
 (let ((?x1268 (* (/ 127977891313853.0 1000000000000000000000.0) _a_3_)))
 (let ((?x1263 (* (/ 64009.0 1000000000000.0) _a_2_)))
 (let ((?x1261 (* (/ 977225403.0 500000000000000000.0) _a_1_)))
 (let ((?x1264 (+ ?x1261 ?x1263)))
 (let ((?x1266 (- ?x1264 (* _a_3_ (+ (* l_0_2_2 l_0_2_2) (* l_0_2_3 l_0_2_3))))))
 (= (- ?x1266 ?x1268) 0.0)))))))
(assert
 (= (+ (* (/ 6561258219361.0 1000000000000000000.0) _a_1_) (* (/ 6393154170117.0 8000000000000000000.0) _a_3_)) 0.0))
(assert
 (= (- (* (- (/ 266011163319.0 1000000000000000000.0)) _a_1_) (* (/ 180197214150431.0 10000000000000000000000.0) _a_3_)) 0.0))
(assert
 (= (+ (* (/ 3594937467.0 1000000000000000000.0) _a_1_) (* (/ 22343206019563.0 125000000000000000000000.0) _a_3_)) 0.0))
(assert
 (= (- (* (- (/ 16194277.0 1000000000000000000.0)) _a_1_) (* (/ 82412675653.0 125000000000000000000000.0) _a_3_)) 0.0))
(assert
 (let ((?x1332 (* (/ 350475841.0 1000000000000.0) _a_3_)))
 (let ((?x789 (* l_0_2_6 l_0_2_6)))
 (let ((?x790 (+ (+ (* l_0_2_4 l_0_2_4) (* l_0_2_5 l_0_2_5)) ?x789)))
 (let ((?x642 (- _a_2_)))
 (= (+ (* ?x642 ?x790) ?x1332) 0.0))))))
(assert
 (= (* (- (/ 6561258219361.0 500000000000000000.0)) _a_3_) 0.0))
(assert
 (= (* (/ 122833315124657.0 1000000000000000000000.0) _a_3_) 0.0))
(assert
 (= (* (- (/ 663999331799333.0 100000000000000000000000.0)) _a_3_) 0.0))
(assert
 (= (* (/ 67300824319707.0 500000000000000000000000.0) _a_3_) 0.0))
(assert
 (= (* (- (/ 303173059717.0 250000000000000000000000.0)) _a_3_) 0.0))
(assert
 (= (* (/ 4097152081.0 1000000000000000000000000.0) _a_3_) 0.0))
(assert
 (>= l_0_2_1 0.0))
(assert
 (>= l_0_2_3 0.0))
(assert
 (>= l_0_2_6 0.0))
(assert
 (>= l_0_2_7 0.0))
(assert
 (>= l_0_2_9 0.0))
(assert
 (>= l_0_2_12 0.0))
(assert
 (>= l_0_2_13 0.0))
(assert
 (>= l_0_2_15 0.0))
(assert
 (>= l_0_2_18 0.0))
(check-sat)
(get-model)